1000 1737
1 2 3 4 5 6 7 8 9 10
0 11 12 13 14 15 16 17 18 19 20 21 22 23 24 25 26
0 27 28 29 30 31 32 33 34 35 36 37 38 39 40 41 42 43 44 45 46 47 48 49 50 51 52 53 54 55 56 57 58 59 60 61 62 63 64 65 66 67 68 69 70 71 72
0 73 74 75 76 77 78 79 80 81 82 83 84 85 86 87 88 89 90 91 92 93 94 95 96 97 98 99 100 101 102 103 104 105 106 107 108 109 110 111 112 113 114 115 116 117 118 119 120 121 122 123 124 125 126 127 128 129 130 131 132 133 134 135 136 137 138 139 140 141 142 143 144 145 146
0 147 148 149 150 151 152 153 154 155 156 157 158 159 160 161 162 163 164 165 166 167 168 169 170 171 172 173 174 175 176 177 178 179 180 181 182 183 184 185 186 187 188 189 190 191 192 193 194 195 196 197 198 199 200 201 202 203 204 205 206 207 208 209 210 211 212 213 214 215 216 217 218 219
0 220 221 222 223 224 225 226 227
0 228 229 230 231 232 233 234 235 236 237 238 239 240 241 242 243 244 245 246 247 248 249 250 251 252 253 254 255 256 257 258 259 260 261 262 263 264 265 266 267
0 8 9 268 269 270 271 272 273 274 275 276 277 278 279 280 281 282 283 284 285 286 287 288 289 290 291 292 293 294 295 296 297 298
0 7 9 154 201 203 280 281 284 292 293 299 300 301 302 303 304 305 306 307 308 309 310 311 312 313 314 315 316 317 318 319 320 321 322 323 324 325 326 327 328 329 330 331 332 333 334 335 336 337 338 339 340 341 342 343 344 345 346 347 348 349 350 351 352 353 354 355 356 357 358 359 360 361 362 363 364 365 366 367 368 369 370 371 372 373 374
0 7 8 292 293
0 375 376 377 378 379 380 381 382 383 384 385 386 387 388 389 390 391 392 393 394 395 396 397 398 399 400 401 402 403 404 405
1 406 407 408 409 410 411 412 413 414 415 416 417 418 419 420 421 422 423 424 425
1 426 427 428 429 430 431 432 433 434 435 436 437 438 439 440 441 442 443 444 445 446 447 448 449 450
1 25 451 452 453 454 455 456 457 458 459
1 423 427 432 460 461 462 463 464 465 466 467 468 469 470 471 472 473 474 475 476 477 478 479 480 481 482 483 484 485 486 487 488 489 490 491 492 493 494 495 496 497 498 499 500 501 502 503 504 505 506 507 508 509 510 511 512 513 514 515 516 517 518 519 520 521 522 523 524 525 526 527 528 529 530 531 532 533 534 535 536 537 538 539 540 541 542 543 544 545 546 547 548 549 550 551 552 553 554 555 556 557 558 559 560 561 562 563 564 565 566 567 568 569 570 571 572 573 574 575 576 577 578 579 580 581 582 583 584 585 586 587 588 589 590 591 592 593 594 595 596 597 598 599 600 601 602 603 604 605 606 607 608 609 610 611 612 613 614 615 616 617 618 619 620 621 622 623 624 625 626 627 628 629 630 631 632 633 634 635 636 637 638 639 640 641 642 643 644 645 646 647 648 649 650 651 652 653 654 655 656 657 658 659 660 661 662 663 664 665 666 667 668 669 670 671 672 673 674 675 676 677 678 679 680 681 682 683 684 685 686 687 688 689 690 691 692 693 694 695 696 697 698 699 700 701 702 703 704 705 706 707 708 709 710 711 712 713 714 715 716 717 718 719 720 721 722 723 724 725 726 727 728 729 730 731 732 733 734 735 736 737 738 739 740 741 742 743 744 745 746 747 748 749 750 751 752 753 754 755 756 757 758 759 760 761 762 763 764 765 766 767 768 769 770 771 772 773 774 775 776 777 778 779 780 781 782 783 784 785 786 787 788 789 790 791 792 793 794 795 796 797 798 799 800 801 802 803 804 805 806 807 808 809 810 811 812 813 814 815 816 817 818 819 820 821 822 823 824 825 826 827 828 829 830 831 832 833 834 835 836 837 838 839 840 841 842 843 844 845 846 847 848 849 850 851 852 853 854 855 856 857 858 859 860 861 862 863 864 865 866 867 868 869 870 871 872 873 874 875 876 877 878 879 880 881 882 883 884 885 886 887 888 889 890 891 892 893 894 895 896 897 898 899 900 901 902 903 904 905 906 907 908 909 910 911 912 913 914 915 916 917 918 919 920 921 922 923 924 925 926 927 928 929 930 931 932 933 934 935 936 937 938 939 940 941 942 943 944 945 946 947 948 949 950 951 952 953 954 955 956 957 958 959 960 961 962 963 964 965 966 967 968 969 970 971 972 973 974 975 976 977 978 979 980 981 982 983 984 985 986 987 988 989 990 991 992 993 994 995 996 997 998 999
1 19 22 168 451
1
1 59 727
1 19
1 15 18 22 432 444
1
1
1 15 19 265
1
1
1 13
1 27 317
2 26 154
2 57 302
2 305
2
2
2
2 52
2 39 59 60
2 609 626
2
2
2
2 34
2 603
2 440
2
2
2
2 60 308 435 972
2 666
2
2
2
2
2
2 33 305
2
2
2
2
2 28 308
2
2 17 34 60
2 34 45 59
2
2
2 900
2 154
2 894
2
2
2
2 228 305 501
2
2
2
3 74 103 121 127 131 136 146
3 73 79 85 99 103 106 108 117 121 124 125 126 140 145 146
3 124 128 144 146
3
3 81 103 115 121 124 126 127
3 81 103 113 127
3 74 94 103 118 121 126 127 129 144 146
3 98
3 77 78 91 94 96 99 103 106 115 117 125 126 127 146
3 121 124 126 127 129
3 524
3
3 74 103 126 127
3
3 94 106 126
3 99
3 374 436 734
3 96
3 81 99 115 118 121 126 127 145 146
3
3 514
3 79 81 87 103 106 121 124 125 126 127 144
3
3 81 90 99
3 99
3 80
3 74 81 88 91 96 97 110 117 145
3 126
3 118 146
3
3 73 74 77 78 79 81 85 94 106 108 117 121 125 126 127 131 135 144 146
3
3
3 74 81 87 94 103 117 126 146
3 919
3 74 103 127 144 790
3
3 99 121 127
3 125 913
3
3 78
3
3 77 81 91 124 125 126
3 134 854
3 74 81 99 103 106 121 126 145 146
3 79 91 101 124 125 140
3
3
3 73 74 77 79 82 91 94 103 110 117 123 125 126 127 129 145 146
3
3 121
3 74 75 77 82 94 115 118 126 127 133 144
3 74 81 94 103 111 115 118 121 126 127 604
3 74 77 79 81 82 85 87 91 94 100 103 106 115 117 121 124 125 127 140 144 145 146
3 73 77 78 79 81 82 85 91 94 103 108 110 121 124 125 126 135 144 146
3 75 134
3 79 82 121 136 142 146
3
3 73 103 144 146
3
3 124
3 116 128 140
3 103 127
3 73 129 142
3
3
3
3 74 118 126 134
3
3 129 136
3
3 75 79 94 103 108 124 126 127 131
3 74 91 99 117 121 126 146
3 73 74 75 79 81 91 101 103 106 117 121 126 127 129 131 145
4 163 166 175 197 213 216 217
4 913
4 160
4 164 174 186 300
4 188 209
4 188
4
4 8 27 64 161 170 171 176 184 199 201 270 280 328 332 333 337
4 352 919
4 188 209 213
4 166 192 213 216
4 174 209
4 178 187 196
4 149 177 186 187 340 346
4 154 167 171 173 187 201 204 210
4 173 178 189 196 204 210
4 147 166 192 213 454
4 150 182 187 297
4
4 147 157 163 174 175 179 192 205 213 454
4 161 171 172 176 199 201 204
4 15 177 187 212 304
4 185 188 205 213
4 154 171 437
4 154 161 167 170 172 176 184 186 187 189 191 199 201 204 210 270 366
4 167 171 187 189 201
4 161 162 178 187 189 191 196 204 210
4 150 158 166
4 147 166 213 216
4 154 167 171 187 189 201 204 210 280
4 160 168
4 159 162 173 187 459
4 166
4 188 195 202
4 209 355
4 164 187 269
4
4 154 171 187 189 196 204 210 354
4 169 213
4 150 160 171 201 335 370
4 159 160 161 164 168 171 172 173 176 178 182 184 189 191 196 199
4 151 152 156 169 180 195 198 202 209 213 214 219
4 162 171 172 173 176 184 187 191 204 210
4
4 171 173 187 189 204 210
4 157 163 166 205
4 950
4 209
4 180 188 202
4 159 162 173 184 187 459
4 147 213 217
4 188
4 154 167 171 187 201 204 210 333 437
4 207
4 8 154 161 167 171 172 176 186 199 330 370 373
4 180 188 195
4 8 277 821
4 161 162 167 171 173 176 184 189 191 199 210 270 354
4 166 169 192 216
4 213 437
4 200
4 454
4 151 156 158 181 188 194 277 279
4 161 162 171 173 176 184 189 191 199 204 305
4 843
4 168
4 147 156 157 163 166 169 175 185 188 197 206 217
4 188
4
4 147 157 175 205 285 302 308 348 349 359 362
4 147 197 213
4
4 188
5
5 226
5 225 226
5
5
5 222
5 221 222
5
6 69 501
6
6
6
6
6
6 436
6
6 436
6
6
6 649
6 641
6 255
6
6
6
6
6 430 462
6
6 576
6
6
6
6
6
6 728
6 241 408
6
6
6 589
6
6
6
6
6
6 305
6 22 270
6
6
7 277 288 296 297
7 182
7 154 171 204 265
7 287
7 350
7 276 278 291 298
7
7
7 273 291
7 203 209 268 279 281 288 296 297
7 273 283 298
7 209 277 288 296 297
7 8 154 176 281 302 307 310 312 315 323 324 329 332 333 335 336 337 339 340 341 342 347 352 355 356 357 358 359 360 362 370 372 373 374
7 8 277 280 297 324
7
7 278 289
7 8 292 293
7 216 302 320 362 436
7
7 271
7 268 277 279 297
7 283
7
7 273 276 298
7 8 9 284 293
7 8 9 284 292
7
7
7 268 277 279 297
7 164 268 277 279 281 288 296 324
7 273 278 291
8
8 150 311 317 322 326 327 346 364 368
8
8 28 216 280 285 308 352 362 433
8 342 347
8 168 310
8 29 52 69 210 264 913
8 308
8 280 324 374
8 45 57 216 302 306 310 323 327 328 333 337 342 347 359 373 433
8
8 280 304 308 312 329 342 352
8 300 355 368
8 280 310 335 362 370
8
8 317 318 319 347
8 280
8
8 26 300 314 326 353 354 355
8 314 327
8 314
8 285
8
8 300 326 364
8 280 308 342 352 451
8 280 281 297 307
8
8 300 317 322 353 355 364 368
8 300 308 318 342 350 352
8 154 308
8 280 310 370
8 201
8
8 154 280 335
8 154 199 280 308 359 373
8
8 186 280 312 332 362 433 437 447
8 280
8 154 280 308
8 349 821
8 280 357
8 160 280
8 280 374
8 280 303 308 310 323 327 344 347 348 352 359 443
8 350
8 342 448
8 416 609 626 674 701 737 813 915
8 160 300 353 355 364 368
8 280 303 308 314 342 366
8 216 342
8 216 338 727
8 272 327 343
8 433 821
8 155 280 302 310 323 327 342
8 317 326 346 368
8 184 204 317
8 181 280 311 317 326 346 368
8 280
8 280 339
8 280
8 216 280 308 333 342
8 280
8
8 216 280 285 302 312 335
8
8 300 322 326 346
8 366
8 171 347 365
8
8 300 311 326 346 353 355
8 442
8 186 201 280 312 329 373
8
8 280 432
8 201 280 308 333 370
8 89 280 307 341 913
10
10
10
10 460 463 670 683
10 435
10 384
10
10
10
10 380
10
10 614
10
10
10
10
10
10
10
10
10
10
10
10 728
10
10
10
10
10
10
10 865
11
11 420 802
11 255 683
11 417
11
11
11 993
11 417
11 415 693
11 414 423
11 345 855
11 409 413 993
11
11
11 407
11
11
11 14 415
11
11
12
12 14
12
12
12 246
12
12 14 19 372
12 302 308 335 351
12
12 45 379
12 89 234 236 285 913
12 170 199 206 335 448
12
12
12 41
12 787
12 369
12 342
12 19 447
12
12
12 335 444
12 344 437
12
12
13 15 323
13
13
13 163 166 208
13
13
13
13
13 178 196
14 378
14
14 246
14 378
14 494
14
14 683
14
14
14 728
14 826
14
14
14
14
14
14
14
14
14
14 914
14
14
14 900
14
14 841
14 636 812 983
14
14
14 735 812 947 983
14 504
14
14
14
14 464
14
14
14
14
14
14
14 69 228
14 506 863
14
14 490
14
14 502 863
14 619
14
14
14
14
14
14
14 93
14
14 959
14
14
14
14
14
14 700
14
14 83
14
14
14
14
14
14
14
14
14
14
14
14
14
14
14
14
14
14
14
14
14
14
14 974
14
14 730 963
14
14
14 677
14
14
14
14
14
14
14 991
14
14 570
14
14
14
14
14 652
14
14
14
14 561
14
14
14
14
14
14 248
14
14
14
14
14
14 983
14 854
14
14
14
14
14
14 258
14 769
14
14 695
14
14
14 930
14
14
14
14
14
14
14
14 40
14 125
14
14
14
14
14 35 345 626
14
14
14
14 987
14 386
14
14
14
14
14 507
14
14
14 682
14
14
14
14 35 345 609 648 674 855
14
14
14
14
14
14
14
14
14
14 486 793 812 983
14
14
14
14
14 240
14
14
14 963
14 851
14
14
14 626 925
14 239
14
14 913
14 566
14
14
14
14
14
14
14
14
14
14
14
14
14
14 46
14
14
14 752
14 378
14
14
14 916
14 345 626
14
14
14 552
14
14
14
14
14 622
14 378 408 466
14
14
14
14 793 983
14
14
14
14
14
14 414
14
14 592
14
14
14
14
14 522
14 345
14
14
14
14
14
14 717 782 858
14
14
14
14 931
14
14
14
14 826 922 983
14
14 707 747 782 858
14
14
14
14
14
14
14
14
14
14 17 349
14 254 398 469
14
14 549
14
14
14
14 89
14 489 799 812 872 922 926 947 983
14
14 345
14
14
14
14
14
14 983
14
14
14
14 717 782 858
14
14
14
14
14 669
14
14
14
14
14
14
14
14 854
14
14
14
14
14
14
14
14
14 590
14
14
14
14
14 900
14
14
14
14
14
14
14
14 707 717 747 858
14
14
14
14
14 441
14
14
14 108
14
14
14 636 687 870 983
14
14 902
14
14
14
14 735 812 926 947
14
14
14 407
14
14 821 825
14
14
14
14 983
14
14
14
14 486 489 636 735 799 922 926 936 947 983
14 345
14
14
14
14
14
14
14
14 203 338 351 804
14
14
14
14 804
14 470 715 947 983
14
14
14
14
14 854
14
14
14 914 960
14
14
14
14
14 900
14
14 485
14
14 211
14
14
14
14
14
14
14
14 645 916
14
14
14 116 583 760 831 943
14 416 626
14
14
14 707 717 747 782
14
14 913
14
14
14 502 506
14
14 405
14
14
14
14
14 793 983
14
14 735 983
14
14
14 979
14
14
14
14
14
14 964
14
14
14
14
14
14
14
14
14 912 930
14
14
14
14 65
14
14
14
14
14
14 63 483 774 839 958
14
14 795
14
14
14
14
14
14
14
14
14
14 890
14 111 148 305 374 436 651 860
14 480 834 960
14 345
14 673 851
14
14
14 107 155
14
14
14 715 735 812 983
14
14 950
14 648
14 735 799 812 947 983
14
14 975
14 943
14 595 890
14 711
14
14
14
14
14 812
14
14
14
14
14
14
14 854 929
14
14
14
14 489 735 799 812 826 926 983
14
14
14 193 924
14
14
14
14
14
14
14
14 900
14 516
14 834 914
14
14 971
14 549 644
14 881
14
14
14
14
14
14
14 962 988
14 45
14
14 547
14 928
14
14
14
14 875
14
14
14
14 486 489 582 636 687 715 735 743 793 808 812 826 870 872 922 926 947
14
14
14
14 613
14 971
14
14
14 559
14
14 412 417
14
14
14
14
14
14
